# Solution for model Matching_Model
# Objective value = 5
var_EdgeSelection[1,2] 1
var_EdgeSelection[4,7] 0
var_EdgeSelection[1,3] 0
var_EdgeSelection[4,9] 0
var_EdgeSelection[4,6] 0
var_EdgeSelection[6,8] 0
var_EdgeSelection[6,9] 1
var_EdgeSelection[2,8] 0
var_EdgeSelection[3,8] 0
var_EdgeSelection[3,9] 0
var_EdgeSelection[1,6] 0
var_EdgeSelection[1,9] 0
var_EdgeSelection[2,3] 0
var_EdgeSelection[0,4] 1
var_EdgeSelection[3,7] 1
var_EdgeSelection[0,8] 0
var_EdgeSelection[5,8] 1
var_EdgeSelection[7,9] 0
